
Gurobi 6.5.2 (win64) logging started 07/24/16 17:26:01


Gurobi 6.5.2 (win64) logging started 07/24/16 17:26:01

Optimize a model with 1348 rows, 613 columns and 3725 nonzeros
Coefficient statistics:
  Matrix range    [6e-08, 1e+03]
  Objective range [1e+00, 1e+00]
  Bounds range    [1e+00, 1e+00]
  RHS range       [6e-06, 2e+03]
Presolve removed 1142 rows and 399 columns
Presolve time: 0.00s
Presolved: 206 rows, 214 columns, 935 nonzeros
Variable types: 214 continuous, 0 integer (0 binary)

Root relaxation: objective 2.314445e+01, 196 iterations, 0.00 seconds

    Nodes    |    Current Node    |     Objective Bounds      |     Work
 Expl Unexpl |  Obj  Depth IntInf | Incumbent    BestBd   Gap | It/Node Time

*    0     0               0      23.1444527   23.14445  0.00%     -    0s

Explored 0 nodes (196 simplex iterations) in 0.00 seconds
Thread count was 8 (of 8 available processors)

Optimal solution found (tolerance 1.00e-04)
Best objective 2.314445271334e+01, best bound 2.314445271334e+01, gap 0.0%

Wrote requested result file 'H1\instance7\\Results7EC_Sol6.lp'

